
;this file is automatically generated: Tue Mar 02 16:20:05 CST 2021

;declarations generated

(declare-fun oclExcludes ( Int Int) Bool)
(declare-fun type_cd10431f_3e47_4c67_a318_8b39d75ebf7e_Class9 ( Int) Bool)
(declare-fun type_cd10431f_3e47_4c67_a318_8b39d75ebf7e_Class1 ( Int) Bool)
(declare-fun type_cd10431f_3e47_4c67_a318_8b39d75ebf7e_Class2 ( Int) Bool)
(declare-fun type_cd10431f_3e47_4c67_a318_8b39d75ebf7e_Class3 ( Int) Bool)
(declare-fun type_cd10431f_3e47_4c67_a318_8b39d75ebf7e_Class4 ( Int) Bool)
(declare-fun type_cd10431f_3e47_4c67_a318_8b39d75ebf7e_Class5 ( Int) Bool)
(declare-fun type_cd10431f_3e47_4c67_a318_8b39d75ebf7e_Class6 ( Int) Bool)
(declare-fun type_cd10431f_3e47_4c67_a318_8b39d75ebf7e_Class7 ( Int) Bool)
(declare-fun type_cd10431f_3e47_4c67_a318_8b39d75ebf7e_Class8 ( Int) Bool)
(declare-fun class8_Class8IntAttr2 ( Int) Int)
(declare-fun class8_Class8IntAttr1 ( Int) Int)
(declare-fun type_cd10431f_3e47_4c67_a318_8b39d75ebf7e_Class0 ( Int) Bool)
(declare-fun type_cd10431f_3e47_4c67_a318_8b39d75ebf7e_Class10 ( Int) Bool)
(declare-fun type_cd10431f_3e47_4c67_a318_8b39d75ebf7e_Class11 ( Int) Bool)
(declare-fun type_cd10431f_3e47_4c67_a318_8b39d75ebf7e_Class12 ( Int) Bool)
(declare-fun type_cd10431f_3e47_4c67_a318_8b39d75ebf7e_Class13 ( Int) Bool)
(declare-fun type_cd10431f_3e47_4c67_a318_8b39d75ebf7e_Class14 ( Int) Bool)
(declare-fun type_cd10431f_3e47_4c67_a318_8b39d75ebf7e_Class15 ( Int) Bool)
(declare-fun type_cd10431f_3e47_4c67_a318_8b39d75ebf7e_Class16 ( Int) Bool)
(declare-fun type_cd10431f_3e47_4c67_a318_8b39d75ebf7e_Class17 ( Int) Bool)
(declare-fun Cardinality ( Int) Int)
(declare-fun obj_529afe8e_bc4d_4d3e_b613_ef2bed25934c ( Int) Int)
(declare-fun type_cd10431f_3e47_4c67_a318_8b39d75ebf7e_Class18 ( Int) Bool)
(declare-fun type_cd10431f_3e47_4c67_a318_8b39d75ebf7e_Class19 ( Int) Bool)
(declare-fun type_cd10431f_3e47_4c67_a318_8b39d75ebf7e_Class21 ( Int) Bool)
(declare-fun type_cd10431f_3e47_4c67_a318_8b39d75ebf7e_Class22 ( Int) Bool)
(declare-fun type_cd10431f_3e47_4c67_a318_8b39d75ebf7e_Class23 ( Int) Bool)
(declare-fun type_cd10431f_3e47_4c67_a318_8b39d75ebf7e_Class24 ( Int) Bool)
(declare-fun type_cd10431f_3e47_4c67_a318_8b39d75ebf7e_Class25 ( Int) Bool)
(declare-fun type_cd10431f_3e47_4c67_a318_8b39d75ebf7e_Class26 ( Int) Bool)
(declare-fun type_cd10431f_3e47_4c67_a318_8b39d75ebf7e_Class27 ( Int) Bool)
(declare-fun type_cd10431f_3e47_4c67_a318_8b39d75ebf7e_Class28 ( Int) Bool)
(declare-fun type_cd10431f_3e47_4c67_a318_8b39d75ebf7e_Class20 ( Int) Bool)
(declare-fun type_cd10431f_3e47_4c67_a318_8b39d75ebf7e_Class29 ( Int) Bool)
(declare-fun oclSelect ( Int Bool) Int)
(declare-fun Enum0 ( Int) Int)
(declare-fun Enum1 ( Int) Int)
(declare-fun Enum2 ( Int) Int)
(declare-fun container_ ( Int) Int)
(declare-fun oclIncludes ( Int Int) Bool)
(declare-fun ObjAt ( Int Int) Int)

;formula(s) generated
(assert (! (and (forall ((v Int)) (=> ( type_cd10431f_3e47_4c67_a318_8b39d75ebf7e_Class8 v )  (<= ( class8_Class8IntAttr2 ( obj_529afe8e_bc4d_4d3e_b613_ef2bed25934c v )  )  2))) (forall ((c8_2 Int)(c8_1 Int)) (=> (and ( type_cd10431f_3e47_4c67_a318_8b39d75ebf7e_Class8 c8_1 )  ( type_cd10431f_3e47_4c67_a318_8b39d75ebf7e_Class8 c8_2 ) ) (<= ( class8_Class8IntAttr2 ( obj_529afe8e_bc4d_4d3e_b613_ef2bed25934c c8_1 )  )  ( class8_Class8IntAttr1 ( obj_529afe8e_bc4d_4d3e_b613_ef2bed25934c c8_2 )  ) )))):named l0))
(assert (! (exists ((o Int)) (and ( type_cd10431f_3e47_4c67_a318_8b39d75ebf7e_Class0 ( obj_529afe8e_bc4d_4d3e_b613_ef2bed25934c o )  )  ( type_cd10431f_3e47_4c67_a318_8b39d75ebf7e_Class25 ( obj_529afe8e_bc4d_4d3e_b613_ef2bed25934c o )  ) )):named c0))
(assert (! (exists ((o Int)) ( type_cd10431f_3e47_4c67_a318_8b39d75ebf7e_Class1 ( obj_529afe8e_bc4d_4d3e_b613_ef2bed25934c o )  ) ):named c1))
(assert (! (exists ((o Int)) ( type_cd10431f_3e47_4c67_a318_8b39d75ebf7e_Class10 ( obj_529afe8e_bc4d_4d3e_b613_ef2bed25934c o )  ) ):named c2))
(assert (! (exists ((o Int)) ( type_cd10431f_3e47_4c67_a318_8b39d75ebf7e_Class11 ( obj_529afe8e_bc4d_4d3e_b613_ef2bed25934c o )  ) ):named c3))
(assert (! (exists ((o Int)) ( type_cd10431f_3e47_4c67_a318_8b39d75ebf7e_Class12 ( obj_529afe8e_bc4d_4d3e_b613_ef2bed25934c o )  ) ):named c4))
(assert (! (exists ((o Int)) (and (and ( type_cd10431f_3e47_4c67_a318_8b39d75ebf7e_Class13 ( obj_529afe8e_bc4d_4d3e_b613_ef2bed25934c o )  )  ( type_cd10431f_3e47_4c67_a318_8b39d75ebf7e_Class25 ( obj_529afe8e_bc4d_4d3e_b613_ef2bed25934c o )  ) ) ( type_cd10431f_3e47_4c67_a318_8b39d75ebf7e_Class0 ( obj_529afe8e_bc4d_4d3e_b613_ef2bed25934c o )  ) )):named c5))
(assert (! (exists ((o Int)) (and (and ( type_cd10431f_3e47_4c67_a318_8b39d75ebf7e_Class14 ( obj_529afe8e_bc4d_4d3e_b613_ef2bed25934c o )  )  ( type_cd10431f_3e47_4c67_a318_8b39d75ebf7e_Class25 ( obj_529afe8e_bc4d_4d3e_b613_ef2bed25934c o )  ) ) ( type_cd10431f_3e47_4c67_a318_8b39d75ebf7e_Class17 ( obj_529afe8e_bc4d_4d3e_b613_ef2bed25934c o )  ) )):named c6))
(assert (! (exists ((o Int)) ( type_cd10431f_3e47_4c67_a318_8b39d75ebf7e_Class15 ( obj_529afe8e_bc4d_4d3e_b613_ef2bed25934c o )  ) ):named c7))
(assert (! (exists ((o Int)) ( type_cd10431f_3e47_4c67_a318_8b39d75ebf7e_Class16 ( obj_529afe8e_bc4d_4d3e_b613_ef2bed25934c o )  ) ):named c8))
(assert (! (exists ((o Int)) (and ( type_cd10431f_3e47_4c67_a318_8b39d75ebf7e_Class17 ( obj_529afe8e_bc4d_4d3e_b613_ef2bed25934c o )  )  ( type_cd10431f_3e47_4c67_a318_8b39d75ebf7e_Class25 ( obj_529afe8e_bc4d_4d3e_b613_ef2bed25934c o )  ) )):named c9))
(assert (! (exists ((o Int)) (and (and ( type_cd10431f_3e47_4c67_a318_8b39d75ebf7e_Class18 ( obj_529afe8e_bc4d_4d3e_b613_ef2bed25934c o )  )  ( type_cd10431f_3e47_4c67_a318_8b39d75ebf7e_Class25 ( obj_529afe8e_bc4d_4d3e_b613_ef2bed25934c o )  ) ) ( type_cd10431f_3e47_4c67_a318_8b39d75ebf7e_Class17 ( obj_529afe8e_bc4d_4d3e_b613_ef2bed25934c o )  ) )):named c10))
(assert (! (exists ((o Int)) ( type_cd10431f_3e47_4c67_a318_8b39d75ebf7e_Class19 ( obj_529afe8e_bc4d_4d3e_b613_ef2bed25934c o )  ) ):named c11))
(assert (! (exists ((o Int)) ( type_cd10431f_3e47_4c67_a318_8b39d75ebf7e_Class2 ( obj_529afe8e_bc4d_4d3e_b613_ef2bed25934c o )  ) ):named c12))
(assert (! (exists ((o Int)) ( type_cd10431f_3e47_4c67_a318_8b39d75ebf7e_Class20 ( obj_529afe8e_bc4d_4d3e_b613_ef2bed25934c o )  ) ):named c13))
(assert (! (exists ((o Int)) (and (and (and ( type_cd10431f_3e47_4c67_a318_8b39d75ebf7e_Class21 ( obj_529afe8e_bc4d_4d3e_b613_ef2bed25934c o )  )  ( type_cd10431f_3e47_4c67_a318_8b39d75ebf7e_Class25 ( obj_529afe8e_bc4d_4d3e_b613_ef2bed25934c o )  ) ) ( type_cd10431f_3e47_4c67_a318_8b39d75ebf7e_Class13 ( obj_529afe8e_bc4d_4d3e_b613_ef2bed25934c o )  ) ) ( type_cd10431f_3e47_4c67_a318_8b39d75ebf7e_Class0 ( obj_529afe8e_bc4d_4d3e_b613_ef2bed25934c o )  ) )):named c14))
(assert (! (exists ((o Int)) ( type_cd10431f_3e47_4c67_a318_8b39d75ebf7e_Class22 ( obj_529afe8e_bc4d_4d3e_b613_ef2bed25934c o )  ) ):named c15))
(assert (! (exists ((o Int)) (and (and (and (and ( type_cd10431f_3e47_4c67_a318_8b39d75ebf7e_Class23 ( obj_529afe8e_bc4d_4d3e_b613_ef2bed25934c o )  )  ( type_cd10431f_3e47_4c67_a318_8b39d75ebf7e_Class25 ( obj_529afe8e_bc4d_4d3e_b613_ef2bed25934c o )  ) ) ( type_cd10431f_3e47_4c67_a318_8b39d75ebf7e_Class13 ( obj_529afe8e_bc4d_4d3e_b613_ef2bed25934c o )  ) ) ( type_cd10431f_3e47_4c67_a318_8b39d75ebf7e_Class0 ( obj_529afe8e_bc4d_4d3e_b613_ef2bed25934c o )  ) ) ( type_cd10431f_3e47_4c67_a318_8b39d75ebf7e_Class21 ( obj_529afe8e_bc4d_4d3e_b613_ef2bed25934c o )  ) )):named c16))
(assert (! (exists ((o Int)) (and (and ( type_cd10431f_3e47_4c67_a318_8b39d75ebf7e_Class24 ( obj_529afe8e_bc4d_4d3e_b613_ef2bed25934c o )  )  ( type_cd10431f_3e47_4c67_a318_8b39d75ebf7e_Class25 ( obj_529afe8e_bc4d_4d3e_b613_ef2bed25934c o )  ) ) ( type_cd10431f_3e47_4c67_a318_8b39d75ebf7e_Class0 ( obj_529afe8e_bc4d_4d3e_b613_ef2bed25934c o )  ) )):named c17))
(assert (! (exists ((o Int)) ( type_cd10431f_3e47_4c67_a318_8b39d75ebf7e_Class25 ( obj_529afe8e_bc4d_4d3e_b613_ef2bed25934c o )  ) ):named c18))
(assert (! (exists ((o Int)) ( type_cd10431f_3e47_4c67_a318_8b39d75ebf7e_Class26 ( obj_529afe8e_bc4d_4d3e_b613_ef2bed25934c o )  ) ):named c19))
(assert (! (exists ((o Int)) (and (and ( type_cd10431f_3e47_4c67_a318_8b39d75ebf7e_Class27 ( obj_529afe8e_bc4d_4d3e_b613_ef2bed25934c o )  )  ( type_cd10431f_3e47_4c67_a318_8b39d75ebf7e_Class25 ( obj_529afe8e_bc4d_4d3e_b613_ef2bed25934c o )  ) ) ( type_cd10431f_3e47_4c67_a318_8b39d75ebf7e_Class17 ( obj_529afe8e_bc4d_4d3e_b613_ef2bed25934c o )  ) )):named c20))
(assert (! (exists ((o Int)) (and (and (and (and ( type_cd10431f_3e47_4c67_a318_8b39d75ebf7e_Class28 ( obj_529afe8e_bc4d_4d3e_b613_ef2bed25934c o )  )  ( type_cd10431f_3e47_4c67_a318_8b39d75ebf7e_Class25 ( obj_529afe8e_bc4d_4d3e_b613_ef2bed25934c o )  ) ) ( type_cd10431f_3e47_4c67_a318_8b39d75ebf7e_Class13 ( obj_529afe8e_bc4d_4d3e_b613_ef2bed25934c o )  ) ) ( type_cd10431f_3e47_4c67_a318_8b39d75ebf7e_Class0 ( obj_529afe8e_bc4d_4d3e_b613_ef2bed25934c o )  ) ) ( type_cd10431f_3e47_4c67_a318_8b39d75ebf7e_Class21 ( obj_529afe8e_bc4d_4d3e_b613_ef2bed25934c o )  ) )):named c21))
(assert (! (exists ((o Int)) ( type_cd10431f_3e47_4c67_a318_8b39d75ebf7e_Class29 ( obj_529afe8e_bc4d_4d3e_b613_ef2bed25934c o )  ) ):named c22))
(assert (! (exists ((o Int)) ( type_cd10431f_3e47_4c67_a318_8b39d75ebf7e_Class3 ( obj_529afe8e_bc4d_4d3e_b613_ef2bed25934c o )  ) ):named c23))
(assert (! (exists ((o Int)) (and (and (and (and ( type_cd10431f_3e47_4c67_a318_8b39d75ebf7e_Class4 ( obj_529afe8e_bc4d_4d3e_b613_ef2bed25934c o )  )  ( type_cd10431f_3e47_4c67_a318_8b39d75ebf7e_Class25 ( obj_529afe8e_bc4d_4d3e_b613_ef2bed25934c o )  ) ) ( type_cd10431f_3e47_4c67_a318_8b39d75ebf7e_Class24 ( obj_529afe8e_bc4d_4d3e_b613_ef2bed25934c o )  ) ) ( type_cd10431f_3e47_4c67_a318_8b39d75ebf7e_Class6 ( obj_529afe8e_bc4d_4d3e_b613_ef2bed25934c o )  ) ) ( type_cd10431f_3e47_4c67_a318_8b39d75ebf7e_Class0 ( obj_529afe8e_bc4d_4d3e_b613_ef2bed25934c o )  ) )):named c24))
(assert (! (exists ((o Int)) ( type_cd10431f_3e47_4c67_a318_8b39d75ebf7e_Class5 ( obj_529afe8e_bc4d_4d3e_b613_ef2bed25934c o )  ) ):named c25))
(assert (! (exists ((o Int)) (and (and (and ( type_cd10431f_3e47_4c67_a318_8b39d75ebf7e_Class6 ( obj_529afe8e_bc4d_4d3e_b613_ef2bed25934c o )  )  ( type_cd10431f_3e47_4c67_a318_8b39d75ebf7e_Class25 ( obj_529afe8e_bc4d_4d3e_b613_ef2bed25934c o )  ) ) ( type_cd10431f_3e47_4c67_a318_8b39d75ebf7e_Class24 ( obj_529afe8e_bc4d_4d3e_b613_ef2bed25934c o )  ) ) ( type_cd10431f_3e47_4c67_a318_8b39d75ebf7e_Class0 ( obj_529afe8e_bc4d_4d3e_b613_ef2bed25934c o )  ) )):named c26))
(assert (! (exists ((o Int)) ( type_cd10431f_3e47_4c67_a318_8b39d75ebf7e_Class7 ( obj_529afe8e_bc4d_4d3e_b613_ef2bed25934c o )  ) ):named c27))
(assert (! (exists ((o Int)) ( type_cd10431f_3e47_4c67_a318_8b39d75ebf7e_Class8 ( obj_529afe8e_bc4d_4d3e_b613_ef2bed25934c o )  ) ):named c28))
(assert (! (exists ((o Int)) ( type_cd10431f_3e47_4c67_a318_8b39d75ebf7e_Class9 ( obj_529afe8e_bc4d_4d3e_b613_ef2bed25934c o )  ) ):named c29))

 ;end of formula 